N = 10;
M = 15;
Edge_Start = [1, 1, 1, 2, 2, 3, 3, 4, 4, 5, 6, 6, 7, 7, 8];
Edge_End = [2, 5, 6, 3, 7, 4, 8, 5, 9, 10, 8, 9, 9, 10, 10];
L = [2, 2, 2, 2, 3, 4, 5, 4, 2, 2, 4, 4, 5, 3, 5];
T = [2, 4, 7, 3, 8, 5, 5, 5, 3, 3, 5, 6, 8, 8, 4];
Lower_Bound = [4, 1, 3, 3, 1, 3, 3, 3, 0, 3];
Upper_Bound = [14, 31, 34, 42, 49, 24, 40, 43, 55, 53];
Start = 1;
End = 10;
Time = 76;
